1638787260
1638803962
1638875700
1638888960
1638962760
1638974700
1639049400
1639063920
1639480860
1639499880
1639567560
1639586220
1639653720
1639670400
1639740420
1639756260
1639996202
1640010600
1640086080
1640100600
1640172600
1640179980
